param set_len = 22;
param target_sum = 3018004500;
param values := [0] 169638458 [1] 181183844 [2] 459836692 [3] 409838354 [4] 426833461 [5] 271717906 [6] 486616132 [7] 87622199 [8] 372372970 [9] 426707265 [10] 355199314 [11] 435092593 [12] 112128568 [13] 314895332 [14] 101742892 [15] 14709403 [16] 267496553 [17] 15410595 [18] 325774960 [19] 65542001 [20] 153506804 [21] 300098501 ;
